(set-info :Origin "This instance was generated by: BanditFuzz-- an RL fuzzer for SMT solvers" )
(set-info :Author "Joe Scott, Fed Mora, Vijay Ganesh" )
(set-info :Contact "Joe Scott, joseph.scott@uwaterloo.ca")
; solvers/z3.sh
; 	time => 2.2227532863616943
; 	answer => sat
; solvers/bitwuzla.sh
; 	time => 0.16533780097961426
; 	answer => sat
; solvers/cvc4.sh
; 	time => 0.08913254737854004
; 	answer => err
(set-logic QF_BV)
(declare-const bool_0 Bool)
(declare-const bool_1 Bool)
(declare-const bool_2 Bool)
(declare-const bool_3 Bool)
(declare-const bool_4 Bool)
(declare-const bv_0 (_ BitVec 32))
(declare-const bv_1 (_ BitVec 32))
(declare-const bv_2 (_ BitVec 32))
(declare-const bv_3 (_ BitVec 32))
(declare-const bv_4 (_ BitVec 32))
(assert (bvslt (bvurem (bvor bv_1 #xb0ed10ec ) (bvashr #xdde2c5e5  bv_2)) (bvand (bvadd #x0fe5a90f  bv_3) (bvadd bv_3 bv_0))))
(assert (not (bvslt (bvand #x4d4e2054  bv_4) (bvsdiv #xbfca6401  #x1412c9a5 ))))
(assert (=> (bvule (bvurem bv_0 bv_4) (bvand bv_0 bv_0)) (and (bvsle bv_4 #x7654f231 ) (bvuge bv_2 bv_2))))
(assert (bvslt (bvsdiv (bvxnor bv_0 bv_2) (bvor bv_4 #xdb41f11d )) (bvsub (bvsub bv_3 #x224f8b76 ) (bvor #x51e9a3c9  #xe8daeb56 ))))
(assert (bvule (bvlshr (bvsub #x2da46e14  #x7827ca37 ) (bvshl bv_1 #xee38ecf3 )) (bvsmod (bvmul #xc4df6058  #xb86097f4 ) (bvudiv #x7626bac9  bv_4))))
(check-sat)
(exit)
